1 1 2 0
1 1 3 0
1 1 -4 0
1 5 6 0
1 5 7 0
1 -5 3 0
1 7 -8 0
1 9 -10 0
1 -11 -12 0
1 -3 13 0
1 14 -15 0
1 -16 15 0
1 -17 -18 0
1 -17 -9 0
1 17 19 0
1 -17 20 0
1 21 15 0
1 21 -6 0
1 21 -13 0
1 21 -22 0
1 -21 4 0
1 23 24 0
1 -23 5 0
1 6 -16 0
1 -6 -7 0
1 -6 -17 0
1 6 5 0
1 -19 -25 0
1 19 17 0
1 -19 -14 0
1 15 25 0
1 -15 17 0
1 15 -14 0
1 15 5 0
1 -26 18 0
1 26 23 0
1 26 22 0
1 27 28 0
1 22 21 0
1 -22 26 0
1 -28 27 0
1 -28 -17 0
1 -28 29 0
1 30 31 0
1 30 32 0
1 33 -2 0
1 34 -33 0
1 35 36 0
1 35 -8 0
1 8 -37 0
1 -8 -38 0
1 -39 34 0
1 -39 -35 0
1 -39 -33 0
1 -40 41 0
1 -40 42 0
1 -37 8 0
1 -38 -8 0
1 -42 43 0
1 -42 3 0
1 44 -45 0
1 44 -42 0
1 -20 -45 0
1 13 39 0
1 13 -36 0
1 -13 -45 0
1 -46 -10 0
1 46 20 0
1 -46 -35 0
1 43 42 0
1 43 35 0
1 36 20 0
1 36 42 0
1 -36 35 0
1 45 20 0
1 -45 42 0
1 -10 -19 0
1 -10 -47 0
1 25 -15 0
1 -25 11 0
1 25 10 0
1 -25 -47 0
1 25 -48 0
1 25 -4 0
1 49 -50 0
1 49 43 0
1 -51 52 0
1 -51 -43 0
1 -51 53 0
1 50 54 0
1 50 55 0
1 -50 -49 0
1 50 48 0
1 48 -13 0
1 -48 -50 0
1 48 54 0
1 -48 31 0
1 48 -56 0
1 -52 13 0
1 -52 57 0
1 -47 -25 0
1 47 -10 0
1 56 -30 0
1 56 12 0
1 56 -58 0
1 -56 -59 0
1 -32 56 0
1 32 -23 0
1 -32 28 0
1 31 12 0
1 31 60 0
1 -31 -48 0
1 59 -61 0
1 59 62 0
1 12 -11 0
1 -12 -63 0
1 -12 64 0
1 -53 -56 0
1 53 -3 0
1 -53 32 0
1 65 -18 0
1 -29 60 0
1 29 28 0
1 -29 -22 0
1 29 64 0
1 -66 -67 0
1 66 68 0
1 -66 -69 0
1 70 -68 0
1 70 71 0
1 70 59 0
1 60 68 0
1 -60 -72 0
1 60 -73 0
1 -60 66 0
1 -60 74 0
1 68 -6 0
1 68 66 0
1 68 70 0
1 69 -31 0
1 -69 19 0
1 69 29 0
1 -69 -75 0
1 -67 61 0
1 -67 31 0
1 -73 -60 0
1 74 -71 0
1 -76 -71 0
1 -77 74 0
1 77 -70 0
1 -78 66 0
1 -79 -70 0
1 71 -30 0
1 71 72 0
1 71 -73 0
1 71 -76 0
1 58 80 0
1 58 -45 0
1 81 58 0
1 82 80 0
1 -82 52 0
1 83 84 0
1 83 -85 0
1 -83 47 0
1 -80 81 0
1 80 -54 0
1 -80 64 0
1 -41 -54 0
1 -41 -82 0
1 -41 -58 0
1 41 83 0
1 -84 -82 0
1 84 58 0
1 84 83 0
1 86 84 0
1 -86 -82 0
1 86 -38 0
1 -54 -87 0
1 54 41 0
1 54 47 0
1 64 52 0
1 -64 54 0
1 -64 -85 0
1 64 -29 0
1 -88 -87 0
1 -88 -41 0
1 -63 -41 0
1 -87 88 0
1 -85 -89 0
1 85 -61 0
1 -85 64 0
1 90 -36 0
1 90 64 0
1 91 90 0
1 61 67 0
1 -61 85 0
1 -62 92 0
1 62 -69 0
1 62 -93 0
1 62 94 0
1 89 95 0
1 -89 85 0
1 -95 89 0
1 55 89 0
1 55 95 0
1 -55 63 0
1 57 -89 0
